param n := 120;
param c := 10000
param : V : p w :=
   0	  28	 433
   1	  83	 260
   2	  47	 307
   3	   4	 493
   4	  49	 252
   5	  88	 255
   6	  65	 415
   7	  22	 280
   8	  18	 305
   9	  66	 457
  10	  73	 253
  11	  96	 290
  12	  45	 491
  13	  28	 251
  14	  45	 258
  15	  53	 375
  16	  69	 254
  17	   1	 371
  18	  55	 402
  19	  77	 289
  20	  23	 309
  21	  52	 410
  22	  35	 275
  23	  74	 315
  24	  77	 393
  25	  93	 275
  26	   3	 332
  27	  39	 462
  28	  99	 259
  29	  84	 279
  30	  44	 414
  31	  24	 254
  32	  25	 332
  33	  19	 355
  34	  28	 312
  35	  46	 333
  36	  62	 474
  37	  59	 258
  38	  76	 268
  39	  20	 420
  40	  97	 282
  41	  45	 298
  42	 100	 453
  43	  86	 272
  44	  22	 275
  45	  61	 408
  46	   9	 289
  47	  78	 303
  48	  77	 411
  49	  98	 260
  50	   9	 329
  51	  61	 363
  52	  46	 303
  53	  97	 334
  54	   8	 447
  55	 100	 255
  56	  11	 298
  57	  92	 471
  58	  95	 256
  59	  69	 273
  60	  97	 499
  61	  35	 250
  62	  98	 251
  63	  26	 424
  64	  48	 277
  65	  93	 299
  66	  42	 465
  67	  31	 257
  68	  75	 278
  69	  45	 373
  70	  82	 269
  71	  92	 358
  72	  93	 494
  73	   7	 250
  74	  95	 256
  75	   2	 413
  76	  49	 281
  77	  90	 306
  78	  95	 462
  79	   4	 257
  80	  49	 281
  81	  17	 435
  82	  67	 280
  83	  88	 285
  84	  84	 480
  85	  30	 250
  86	  49	 270
  87	  11	 389
  88	   3	 271
  89	  21	 340
  90	   2	 462
  91	  49	 254
  92	  26	 284
  93	  18	 469
  94	  96	 259
  95	  80	 272
  96	  29	 351
  97	  31	 291
  98	  82	 358
  99	  35	 389
 100	  14	 268
 101	  69	 343
 102	  37	 383
 103	  11	 282
 104	  42	 335
 105	  67	 394
 106	  37	 288
 107	  68	 318
 108	  99	 393
 109	  56	 258
 110	  35	 349
 111	  34	 482
 112	  21	 257
 113	   2	 261
 114	  64	 363
 115	  20	 282
 116	  13	 355
 117	  82	 423
 118	 100	 264
 119	  66	 313
;

set E :=
   0	   5
   0	   9
   0	  17
   0	  21
   0	  26
   0	  36
   0	  44
   0	  49
   0	  53
   0	  55
   0	  58
   0	  76
   0	  77
   0	  78
   0	  84
   0	  98
   0	 107
   0	 108
   1	   7
   1	  11
   1	  13
   1	  14
   1	  28
   1	  31
   1	  32
   1	  37
   1	  38
   1	  40
   1	  42
   1	  49
   1	  51
   1	  57
   1	  63
   1	  65
   1	  68
   1	  77
   1	  86
   1	  89
   1	  93
   1	  97
   1	 102
   1	 109
   1	 112
   1	 117
   2	  17
   2	  24
   2	  27
   2	  28
   2	  35
   2	  40
   2	  41
   2	  48
   2	  54
   2	  55
   2	  56
   2	  61
   2	  66
   2	  68
   2	  78
   2	  81
   2	  96
   2	 106
   2	 118
   3	   9
   3	  16
   3	  17
   3	  20
   3	  22
   3	  24
   3	  32
   3	  33
   3	  34
   3	  40
   3	  42
   3	  52
   3	  68
   3	  75
   3	  76
   3	  78
   3	  79
   3	  81
   3	  90
   3	  94
   3	  98
   3	 101
   3	 108
   3	 117
   4	  13
   4	  19
   4	  20
   4	  22
   4	  24
   4	  33
   4	  40
   4	  42
   4	  50
   4	  66
   4	  68
   4	  71
   4	  77
   4	  80
   4	  82
   4	  86
   4	  88
   4	  97
   4	  98
   4	 100
   4	 107
   4	 110
   4	 112
   4	 115
   5	   6
   5	   7
   5	   9
   5	  16
   5	  35
   5	  37
   5	  43
   5	  46
   5	  55
   5	  63
   5	  66
   5	  72
   5	  82
   5	  90
   5	  94
   5	  96
   5	  99
   5	 103
   5	 104
   5	 107
   5	 118
   6	   8
   6	  19
   6	  31
   6	  43
   6	  47
   6	  57
   6	  62
   6	  71
   6	  73
   6	  75
   6	  78
   6	  79
   6	  81
   6	  82
   6	  86
   6	  88
   6	  92
   6	 100
   6	 105
   6	 108
   6	 112
   6	 114
   7	  14
   7	  16
   7	  30
   7	  34
   7	  37
   7	  62
   7	  69
   7	  73
   7	  74
   7	  77
   7	  85
   7	  89
   7	 106
   7	 107
   7	 108
   8	   9
   8	  14
   8	  15
   8	  18
   8	  22
   8	  23
   8	  24
   8	  26
   8	  31
   8	  34
   8	  35
   8	  48
   8	  57
   8	  71
   8	  76
   8	  81
   8	  85
   8	  88
   8	 105
   8	 110
   8	 113
   8	 114
   8	 115
   8	 117
   9	  15
   9	  22
   9	  23
   9	  30
   9	  33
   9	  35
   9	  36
   9	  41
   9	  43
   9	  45
   9	  46
   9	  51
   9	  53
   9	  54
   9	  59
   9	  66
   9	  67
   9	  75
   9	  76
   9	  77
   9	  84
   9	  85
   9	  87
   9	  89
   9	  91
   9	  92
   9	  95
   9	 106
   9	 119
  10	  11
  10	  16
  10	  17
  10	  32
  10	  41
  10	  43
  10	  47
  10	  52
  10	  54
  10	  56
  10	  58
  10	  61
  10	  66
  10	  67
  10	  71
  10	  79
  10	  85
  10	  94
  10	  98
  10	 100
  10	 101
  10	 108
  10	 111
  10	 115
  11	  12
  11	  16
  11	  22
  11	  23
  11	  27
  11	  33
  11	  34
  11	  37
  11	  45
  11	  53
  11	  58
  11	  61
  11	  67
  11	  70
  11	  72
  11	  75
  11	  77
  11	  78
  11	  84
  11	  89
  11	  90
  11	  93
  11	  98
  11	 102
  11	 115
  11	 116
  12	  28
  12	  29
  12	  31
  12	  33
  12	  38
  12	  49
  12	  61
  12	  64
  12	  73
  12	  77
  12	  83
  12	  85
  12	  86
  12	  90
  12	  95
  12	  97
  12	 100
  12	 110
  13	  19
  13	  23
  13	  24
  13	  34
  13	  41
  13	  45
  13	  52
  13	  65
  13	  70
  13	  72
  13	  73
  13	  75
  13	  90
  13	  92
  13	  94
  13	  97
  13	  98
  13	 110
  13	 113
  13	 114
  14	  21
  14	  24
  14	  26
  14	  27
  14	  28
  14	  30
  14	  37
  14	  44
  14	  48
  14	  55
  14	  61
  14	  66
  14	  72
  14	  80
  14	  85
  14	  86
  14	  88
  14	  90
  14	  92
  14	  95
  14	  97
  14	 104
  14	 115
  14	 117
  14	 119
  15	  19
  15	  20
  15	  25
  15	  26
  15	  27
  15	  32
  15	  39
  15	  43
  15	  47
  15	  48
  15	  49
  15	  56
  15	  57
  15	  59
  15	  62
  15	  63
  15	  65
  15	  67
  15	  71
  15	  72
  15	  83
  15	  93
  15	  94
  15	 101
  16	  17
  16	  18
  16	  36
  16	  37
  16	  55
  16	  59
  16	  60
  16	  62
  16	  79
  16	  83
  16	  92
  16	  93
  16	 105
  16	 118
  17	  25
  17	  31
  17	  37
  17	  41
  17	  45
  17	  62
  17	  66
  17	  68
  17	  73
  17	  76
  17	  77
  17	  90
  17	  93
  17	  96
  17	  98
  17	 114
  18	  19
  18	  27
  18	  30
  18	  36
  18	  39
  18	  40
  18	  43
  18	  49
  18	  55
  18	  56
  18	  64
  18	  67
  18	  72
  18	  81
  18	  88
  18	  90
  18	  98
  18	 100
  18	 103
  18	 111
  18	 112
  18	 114
  18	 115
  19	  22
  19	  26
  19	  31
  19	  34
  19	  38
  19	  39
  19	  46
  19	  57
  19	  61
  19	  67
  19	  77
  19	  82
  19	  85
  19	  87
  19	  96
  19	 104
  19	 108
  19	 109
  19	 111
  20	  21
  20	  25
  20	  26
  20	  28
  20	  36
  20	  43
  20	  45
  20	  51
  20	  54
  20	  59
  20	  67
  20	  69
  20	  70
  20	  73
  20	  75
  20	  77
  20	  80
  20	  81
  20	  86
  20	  90
  20	  95
  20	  97
  20	  98
  20	 106
  21	  22
  21	  25
  21	  39
  21	  45
  21	  52
  21	  58
  21	  60
  21	  68
  21	  76
  21	  77
  21	  80
  21	  87
  21	  88
  21	  93
  21	  94
  21	  95
  21	 102
  21	 108
  21	 114
  21	 115
  21	 116
  21	 119
  22	  23
  22	  26
  22	  28
  22	  31
  22	  43
  22	  49
  22	  58
  22	  64
  22	  69
  22	  70
  22	  71
  22	  72
  22	  82
  22	  88
  22	  90
  22	  91
  22	  96
  22	 111
  22	 113
  22	 115
  22	 118
  23	  24
  23	  25
  23	  27
  23	  28
  23	  36
  23	  40
  23	  49
  23	  59
  23	  60
  23	  63
  23	  65
  23	  68
  23	  69
  23	  80
  23	  81
  23	  84
  23	  86
  23	  92
  23	  93
  23	  96
  23	  99
  23	 109
  23	 112
  23	 113
  24	  39
  24	  41
  24	  46
  24	  48
  24	  64
  24	  65
  24	  68
  24	  75
  24	  86
  24	  88
  24	  94
  24	 100
  24	 102
  24	 107
  24	 112
  24	 113
  25	  28
  25	  37
  25	  38
  25	  42
  25	  47
  25	  52
  25	  53
  25	  61
  25	  69
  25	  70
  25	  74
  25	  77
  25	  80
  25	  87
  25	  88
  25	  97
  25	 102
  25	 113
  26	  32
  26	  36
  26	  42
  26	  47
  26	  48
  26	  49
  26	  56
  26	  58
  26	  78
  26	  81
  26	  82
  26	  83
  26	  85
  26	  86
  26	  94
  26	  98
  26	 109
  26	 110
  27	  30
  27	  33
  27	  35
  27	  42
  27	  43
  27	  50
  27	  54
  27	  56
  27	  64
  27	  68
  27	  76
  27	  77
  27	  80
  27	  81
  27	  83
  27	  84
  27	  87
  27	  90
  27	  99
  27	 103
  27	 114
  27	 115
  27	 116
  28	  29
  28	  45
  28	  50
  28	  51
  28	  61
  28	  65
  28	  79
  28	  85
  28	  86
  28	  89
  28	  92
  28	  96
  28	  98
  28	  99
  28	 118
  28	 119
  29	  52
  29	  53
  29	  57
  29	  65
  29	  71
  29	  72
  29	  82
  29	  85
  29	  86
  29	  88
  29	  89
  29	  93
  29	  95
  29	 100
  29	 102
  29	 107
  29	 108
  29	 109
  29	 111
  29	 112
  29	 114
  29	 117
  30	  33
  30	  38
  30	  41
  30	  63
  30	  70
  30	  75
  30	  77
  30	  81
  30	  84
  30	  90
  30	  91
  30	 101
  30	 103
  30	 104
  30	 109
  30	 111
  30	 112
  30	 113
  30	 116
  31	  40
  31	  44
  31	  57
  31	  59
  31	  63
  31	  70
  31	  71
  31	  83
  31	  84
  31	  90
  31	  94
  31	 102
  31	 104
  31	 112
  31	 115
  32	  35
  32	  38
  32	  39
  32	  51
  32	  52
  32	  58
  32	  60
  32	  61
  32	  70
  32	  72
  32	  83
  32	  86
  32	  90
  32	  91
  32	  97
  32	 101
  32	 108
  32	 113
  32	 114
  32	 116
  33	  40
  33	  42
  33	  43
  33	  56
  33	  61
  33	  72
  33	  76
  33	  78
  33	  88
  33	  94
  33	 102
  33	 105
  33	 106
  33	 110
  33	 111
  33	 116
  33	 118
  34	  36
  34	  39
  34	  47
  34	  50
  34	  51
  34	  62
  34	  67
  34	  71
  34	  82
  34	  88
  34	  90
  34	  92
  34	  98
  34	 100
  34	 102
  34	 104
  34	 106
  34	 110
  34	 112
  34	 118
  35	  44
  35	  48
  35	  60
  35	  61
  35	  65
  35	  69
  35	  73
  35	  81
  35	  87
  35	  91
  35	  98
  35	 101
  35	 103
  35	 104
  35	 105
  35	 107
  35	 116
  36	  39
  36	  41
  36	  42
  36	  46
  36	  50
  36	  52
  36	  58
  36	  61
  36	  63
  36	  64
  36	  67
  36	  78
  36	  79
  36	  82
  36	  94
  36	  98
  36	  99
  36	 102
  36	 107
  37	  45
  37	  49
  37	  55
  37	  56
  37	  63
  37	  65
  37	  69
  37	  72
  37	  76
  37	  86
  37	  90
  37	  95
  37	  98
  37	 107
  37	 111
  37	 113
  37	 116
  38	  41
  38	  43
  38	  47
  38	  61
  38	  67
  38	  85
  38	 100
  38	 104
  38	 106
  38	 111
  38	 113
  39	  40
  39	  57
  39	  65
  39	  68
  39	  80
  39	  81
  39	  86
  39	  88
  39	  89
  39	  90
  39	  97
  39	  98
  39	  99
  39	 107
  39	 110
  39	 113
  39	 114
  40	  46
  40	  49
  40	  50
  40	  51
  40	  55
  40	  61
  40	  70
  40	  77
  40	  78
  40	  84
  40	  88
  40	  89
  40	 101
  40	 106
  40	 111
  40	 115
  40	 117
  40	 118
  41	  42
  41	  43
  41	  56
  41	  60
  41	  61
  41	  69
  41	  78
  41	  80
  41	  83
  41	  84
  41	  93
  41	  95
  41	  96
  41	 100
  41	 102
  41	 105
  41	 108
  41	 112
  41	 114
  41	 119
  42	  43
  42	  47
  42	  48
  42	  53
  42	  56
  42	  63
  42	  75
  42	  77
  42	  78
  42	  82
  42	  86
  42	  96
  42	 105
  42	 113
  42	 118
  43	  55
  43	  71
  43	  76
  43	  83
  43	  84
  43	  93
  43	 101
  43	 105
  43	 108
  43	 110
  43	 111
  43	 115
  43	 119
  44	  46
  44	  50
  44	  51
  44	  53
  44	  62
  44	  87
  44	  89
  44	  91
  44	  93
  44	 109
  44	 113
  44	 114
  44	 118
  45	  49
  45	  54
  45	  58
  45	  76
  45	  78
  45	  79
  45	  80
  45	  81
  45	  99
  45	 107
  45	 109
  45	 115
  46	  52
  46	  56
  46	  65
  46	  66
  46	  67
  46	  77
  46	  80
  46	  84
  46	  86
  46	  89
  46	  92
  46	  99
  46	 103
  46	 107
  46	 113
  46	 114
  47	  48
  47	  58
  47	  63
  47	  65
  47	  68
  47	  70
  47	  71
  47	  73
  47	  87
  47	  97
  47	 106
  48	  51
  48	  52
  48	  54
  48	  60
  48	  76
  48	  95
  48	 101
  48	 107
  48	 115
  48	 117
  49	  53
  49	  57
  49	  60
  49	  61
  49	  67
  49	  68
  49	  75
  49	  78
  49	  83
  49	  84
  49	  88
  49	  96
  49	 104
  49	 105
  49	 115
  49	 119
  50	  51
  50	  57
  50	  59
  50	  60
  50	  63
  50	  72
  50	  79
  50	  80
  50	  83
  50	  87
  50	  88
  50	 102
  50	 104
  50	 109
  50	 116
  50	 119
  51	  52
  51	  54
  51	  59
  51	  73
  51	  76
  51	  79
  51	  87
  51	  93
  51	  94
  51	  98
  52	  56
  52	  59
  52	  61
  52	  64
  52	  65
  52	  66
  52	  74
  52	  78
  52	  81
  52	  82
  52	  87
  52	  92
  52	  95
  52	  96
  52	  97
  52	 101
  52	 104
  52	 111
  53	  58
  53	  62
  53	  65
  53	  70
  53	  74
  53	  76
  53	  77
  53	  79
  53	  83
  53	  84
  53	  86
  53	  94
  53	 111
  53	 113
  53	 117
  54	  60
  54	  64
  54	  70
  54	  72
  54	  73
  54	  76
  54	  90
  54	 100
  54	 108
  54	 115
  54	 117
  54	 119
  55	  58
  55	  85
  55	 103
  55	 109
  55	 111
  55	 113
  55	 119
  56	  66
  56	  67
  56	  73
  56	  82
  56	  89
  56	  92
  56	  96
  56	  99
  56	 101
  56	 111
  56	 113
  56	 118
  57	  62
  57	  70
  57	  73
  57	  83
  57	  88
  57	  95
  57	  96
  57	 101
  57	 104
  57	 113
  57	 115
  57	 118
  57	 119
  58	  70
  58	  71
  58	  72
  58	  79
  58	  96
  58	 102
  58	 106
  58	 114
  58	 115
  58	 118
  59	  63
  59	  76
  59	  77
  59	  79
  59	  84
  59	  87
  59	  88
  59	  89
  59	  94
  59	 104
  59	 109
  59	 110
  59	 113
  59	 116
  59	 117
  59	 118
  60	  62
  60	  63
  60	  77
  60	  83
  60	  86
  60	  88
  60	 111
  60	 113
  60	 118
  61	  65
  61	  66
  61	  67
  61	  68
  61	  70
  61	  76
  61	  79
  61	  82
  61	  86
  61	  89
  61	  93
  61	  94
  61	 100
  61	 104
  61	 109
  61	 110
  61	 114
  61	 118
  62	  64
  62	  66
  62	  67
  62	  70
  62	  87
  62	  95
  62	 107
  62	 111
  62	 112
  62	 113
  62	 114
  62	 119
  63	  71
  63	  75
  63	  78
  63	  86
  63	  88
  63	  89
  63	  92
  63	  93
  63	 104
  63	 106
  63	 110
  63	 113
  63	 114
  64	  73
  64	  76
  64	  77
  64	  80
  64	  81
  64	  88
  64	  92
  64	  93
  64	  94
  64	  97
  64	 102
  65	  74
  65	  75
  65	  77
  65	  80
  65	  90
  65	  91
  65	  96
  65	 100
  65	 102
  65	 103
  65	 109
  65	 111
  65	 117
  66	  75
  66	  77
  66	  85
  66	  86
  66	  91
  66	 109
  66	 114
  66	 115
  66	 119
  67	  75
  67	  78
  67	  80
  67	  87
  67	  91
  67	  94
  67	 104
  67	 105
  67	 110
  67	 111
  67	 114
  67	 119
  68	  71
  68	  75
  68	  81
  68	  86
  68	  89
  68	  90
  68	  92
  68	  95
  68	  98
  68	 102
  68	 105
  68	 118
  68	 119
  69	  76
  69	  81
  69	  87
  69	  88
  69	  92
  69	  99
  69	 102
  69	 103
  69	 104
  69	 107
  69	 119
  70	  72
  70	  73
  70	  84
  70	  86
  70	 109
  70	 112
  70	 114
  70	 115
  71	  79
  71	  80
  71	  81
  71	  83
  71	  85
  71	 109
  71	 110
  71	 113
  71	 116
  71	 118
  72	  74
  72	  76
  72	  80
  72	  81
  72	  89
  72	  91
  72	  94
  72	 100
  72	 105
  72	 115
  72	 119
  73	  92
  73	  93
  73	 103
  73	 105
  73	 106
  73	 110
  73	 115
  73	 116
  73	 117
  74	  76
  74	  95
  74	  98
  74	 101
  74	 102
  74	 103
  74	 114
  74	 116
  74	 117
  75	  77
  75	  87
  75	  89
  75	  91
  75	  96
  75	 101
  75	 104
  75	 105
  75	 111
  75	 113
  75	 115
  76	  79
  76	  81
  76	  89
  76	  94
  76	  95
  76	  97
  76	 104
  76	 109
  76	 113
  77	  81
  77	  83
  77	  86
  77	  92
  77	  94
  77	 107
  77	 115
  78	  84
  78	  91
  78	  95
  78	 101
  78	 108
  78	 109
  78	 111
  78	 113
  78	 116
  78	 119
  79	  81
  79	  85
  79	  89
  79	  91
  79	  96
  79	 102
  79	 107
  79	 111
  79	 112
  79	 114
  79	 116
  80	  82
  80	  85
  80	  92
  80	  93
  80	  99
  80	 100
  80	 103
  80	 110
  80	 115
  80	 116
  81	  86
  81	  93
  81	  99
  81	 101
  81	 105
  81	 108
  82	  84
  82	  87
  82	  98
  82	 100
  82	 103
  82	 106
  82	 108
  82	 111
  83	  85
  83	  86
  83	  92
  83	  93
  83	  99
  83	 111
  83	 112
  84	  87
  84	  88
  84	  94
  84	  96
  84	  99
  84	 104
  84	 107
  84	 109
  84	 114
  84	 117
  85	  91
  85	 105
  85	 107
  85	 108
  85	 109
  86	  93
  86	  97
  86	 101
  86	 106
  86	 110
  87	  93
  87	 108
  87	 110
  87	 114
  87	 119
  88	  91
  88	  93
  88	  99
  88	 109
  88	 118
  89	  91
  89	  95
  89	  98
  89	  99
  89	 101
  89	 109
  90	  92
  90	 100
  90	 101
  90	 108
  90	 110
  91	 101
  91	 103
  91	 105
  91	 109
  91	 119
  92	  94
  92	  97
  92	  98
  92	 105
  92	 112
  92	 113
  93	  96
  93	  97
  93	 100
  93	 102
  93	 104
  93	 110
  93	 114
  93	 117
  94	 103
  94	 106
  95	  99
  95	 100
  95	 107
  95	 110
  95	 112
  95	 118
  95	 119
  96	 103
  96	 109
  96	 118
  97	  99
  97	 108
  97	 116
  97	 117
  98	 102
  98	 109
  98	 118
  99	 105
  99	 118
  99	 119
 100	 102
 100	 109
 100	 110
 100	 117
 100	 118
 101	 109
 101	 113
 101	 116
 102	 108
 103	 114
 104	 109
 104	 114
 104	 118
 105	 107
 105	 110
 105	 114
 105	 117
 106	 114
 106	 118
 107	 108
 107	 113
 108	 110
 108	 115
 108	 117
 109	 110
 109	 117
 110	 113
 111	 112
 112	 117
 112	 118
 116	 117
;
